data/solutions/recovery/degenerate/moderate/binding/degenerate_moderate_instance36/20.sol
Elapsed time: 0.04
Upper bound: 1467983419.0
Planning weighted value: 38860940998.0
C[0]=1467983419.0
C[1]=1444516997.0
C[2]=1427601973.0
C[3]=1299900625.0
C[4]=0.0
y[0]=0
y[1]=3
y[2]=3
y[3]=3
y[4]=3
y[5]=1
y[6]=3
y[7]=2
y[8]=0
y[9]=3
y[10]=3
y[11]=3
y[12]=3
y[13]=2
y[14]=3
y[15]=2
y[16]=3
y[17]=3
y[18]=0
y[19]=3
y[20]=3
y[21]=1
y[22]=1
y[23]=3
y[24]=3
y[25]=1
y[26]=2
y[27]=3
y[28]=2
y[29]=3
y[30]=2
y[31]=1
y[32]=3
y[33]=1
y[34]=3
y[35]=2
y[36]=1
y[37]=3
y[38]=3
y[39]=0
y[40]=3
y[41]=3
y[42]=0
y[43]=3
y[44]=1
y[45]=0
